(set-logic ALL)
(declare-fun var0 () String)
(assert (str.in_re var0 (re.++ (re.+ (re.* (str.to_re "0"))) (re.++ (re.* (re.union (str.to_re "111") (str.to_re "22"))) (re.++ (re.+ (re.+ (str.to_re "3"))) (re.++ (re.+ (re.union (str.to_re "4") (str.to_re "5"))) (re.++ (re.+ (re.union (str.to_re "666") (str.to_re "7"))) (re.+ (re.union (str.to_re "8") (str.to_re "99"))))))))))
(assert (not (str.in_re var0 (re.++ (re.union (re.union (str.to_re "00") (str.to_re "1")) (re.* (str.to_re "222"))) (re.++ (re.* (re.union (str.to_re "3") (str.to_re "44"))) (re.++ (re.* (re.+ (str.to_re "55"))) (re.++ (re.+ (re.union (str.to_re "66") (str.to_re "77"))) (re.++ (re.+ (re.+ (str.to_re "888"))) (re.+ (re.* (str.to_re "9")))))))))))
(check-sat)